p cnf 117 402
4 -2 0
4 -3 0
2 3 -4 0
1 4 -5 0
-1 -4 -5 0
1 -4 5 0
-1 4 5 0
-6 7 0
6 7 0
-8 5 0
-8 -7 0
-5 7 8 0
11 9 0
11 10 0
-9 -10 -11 0
12 3 0
12 6 0
-3 -6 -12 0
-13 12 0
-13 2 0
-12 -2 13 0
14 -11 0
14 13 0
11 -13 -14 0
-16 7 0
-16 -15 0
-7 15 16 0
18 16 0
18 17 0
-16 -17 -18 0
-18 15 -19 0
18 -15 -19 0
-18 -15 19 0
18 15 19 0
20 -19 0
20 -15 0
19 15 -20 0
-14 20 -21 0
14 -20 -21 0
-14 -20 21 0
14 20 21 0
-24 22 0
-24 -23 0
-22 23 24 0
-26 -1 0
-26 -25 0
1 25 26 0
27 26 0
27 12 0
-26 -12 -27 0
-27 -12 -28 0
27 12 -28 0
-27 12 28 0
27 -12 28 0
29 -24 0
29 -28 0
24 28 -29 0
-30 -29 0
-30 -28 0
29 28 30 0
-31 -1 0
-31 4 0
1 -4 31 0
-32 -30 0
-32 31 0
30 -31 32 0
-33 21 0
-33 32 0
-21 -32 33 0
35 11 0
35 10 0
-11 -10 -35 0
-36 34 0
-36 35 0
-34 -35 36 0
37 -22 0
37 16 0
22 -16 -37 0
36 -37 -38 0
-36 37 -38 0
36 37 38 0
-36 -37 38 0
-39 23 0
-39 -24 0
-23 24 39 0
40 6 0
40 39 0
-6 -39 -40 0
-41 -40 0
-41 19 0
40 -19 41 0
42 -38 0
42 41 0
38 -41 -42 0
43 33 0
43 -42 0
-33 42 -43 0
44 17 -45 0
-44 -17 -45 0
44 -17 45 0
-44 17 45 0
-2 45 -46 0
2 -45 -46 0
-2 -45 46 0
2 45 46 0
-47 -46 0
-47 -1 0
46 1 47 0
48 47 0
48 -34 0
-47 34 -48 0
-49 10 0
-49 -48 0
-10 48 49 0
-50 -28 0
-50 16 0
28 -16 50 0
-51 7 0
-51 -47 0
-7 47 51 0
-52 50 0
-52 -51 0
-50 51 52 0
-53 -52 0
-53 -47 0
52 47 53 0
-15 -12 -54 0
15 12 -54 0
-15 12 54 0
15 -12 54 0
54 35 -55 0
-54 -35 -55 0
54 -35 55 0
-54 35 55 0
53 -55 -56 0
-53 55 -56 0
53 55 56 0
-53 -55 56 0
-57 -49 0
-57 56 0
49 -56 57 0
-58 45 0
-58 11 0
-45 -11 58 0
-59 58 0
-59 13 0
-58 -13 59 0
60 59 0
60 -2 0
-59 2 -60 0
61 -29 0
61 60 0
29 -60 -61 0
-62 -61 0
-62 -52 0
61 52 62 0
-57 62 -63 0
57 -62 -63 0
-57 -62 63 0
57 62 63 0
65 -64 0
65 -17 0
64 17 -65 0
6 -28 -66 0
-6 28 -66 0
6 28 66 0
-6 -28 66 0
-66 -48 -67 0
66 48 -67 0
-66 48 67 0
66 -48 67 0
-68 -59 0
-68 -67 0
59 67 68 0
-9 -24 -69 0
9 24 -69 0
-9 24 69 0
9 -24 69 0
70 -26 0
70 7 0
26 -7 -70 0
-37 -70 -71 0
37 70 -71 0
-37 70 71 0
37 -70 71 0
72 13 0
72 -35 0
-13 35 -72 0
73 71 0
73 72 0
-71 -72 -73 0
69 -73 -74 0
-69 73 -74 0
69 73 74 0
-69 -73 74 0
75 68 0
75 74 0
-68 -74 -75 0
-76 65 0
-76 -75 0
-65 75 76 0
77 -63 0
77 76 0
63 -76 -77 0
-78 -43 0
-78 -77 0
43 77 78 0
8 78 -79 0
-8 -78 -79 0
8 -78 79 0
-8 78 79 0
80 -9 0
80 -59 0
9 59 -80 0
11 -81 0
-11 -81 0
82 81 0
82 7 0
-81 -7 -82 0
80 -82 -83 0
-80 82 -83 0
80 82 83 0
-80 -82 83 0
84 -71 0
84 -45 0
71 45 -84 0
85 -3 0
85 44 0
3 -44 -85 0
86 -12 0
86 -85 0
12 85 -86 0
87 -84 0
87 86 0
84 -86 -87 0
83 -87 -88 0
-83 87 -88 0
83 87 88 0
-83 -87 88 0
-89 -6 0
-89 44 0
6 -44 89 0
90 -85 0
90 2 0
85 -2 -90 0
91 -24 0
91 90 0
24 -90 -91 0
-92 89 0
-92 -91 0
-89 91 92 0
17 35 -93 0
-17 -35 -93 0
17 -35 93 0
-17 35 93 0
-93 3 -94 0
93 -3 -94 0
-93 -3 94 0
93 3 94 0
95 -94 0
95 -3 0
94 3 -95 0
-81 95 -96 0
81 -95 -96 0
-81 -95 96 0
81 95 96 0
-97 -3 0
-97 -9 0
3 9 97 0
-97 -1 -98 0
97 1 -98 0
-97 1 98 0
97 -1 98 0
99 29 0
99 -98 0
-29 98 -99 0
-100 -96 0
-100 -99 0
96 99 100 0
101 23 0
101 35 0
-23 -35 -101 0
-102 -90 0
-102 -98 0
90 98 102 0
103 -46 0
103 28 0
46 -28 -103 0
-104 -103 0
-104 81 0
103 -81 104 0
-105 -102 0
-105 -104 0
102 104 105 0
-106 -11 0
-106 -12 0
11 12 106 0
105 106 -107 0
-105 -106 -107 0
105 -106 107 0
-105 106 107 0
-35 -11 -108 0
35 11 -108 0
-35 11 108 0
35 -11 108 0
-109 -108 0
-109 16 0
108 -16 109 0
37 39 -110 0
-37 -39 -110 0
37 -39 110 0
-37 39 110 0
111 109 0
111 110 0
-109 -110 -111 0
-112 -107 0
-112 111 0
107 -111 112 0
-113 -101 0
-113 112 0
101 -112 113 0
-114 -100 0
-114 -113 0
100 113 114 0
115 92 0
115 -114 0
-92 114 -115 0
-88 -115 -116 0
88 115 -116 0
-88 115 116 0
88 -115 116 0
117 79 0
117 116 0
-79 -116 -117 0
12 -109 -17 0
53 -58 90 0
5 97 0
-49 -67 0
69 -89 0
101 -19 0
-7 -96 103 102 47 0
37 97 0
27 -73 -9 0
-97 70 55 -78 24 0
48 -56 -89 19 117 0
14 -56 0
-25 66 -94 -5 -62 28 0
-38 114 68 -78 0
7 -107 0
-14 19 27 86 18 92 0
-76 -75 -70 0
101 -73 16 -20 -106 0
49 16 53 22 0
-97 -74 -15 58 80 0
16 37 6 0
20 -100 103 102 -90 0
93 82 0
-91 -116 0
93 63 0
84 108 26 0
57 -72 0
17 56 0
33 -109 0
43 62 0
-14 57 0
-3 24 44 79 104 0
-10 59 48 110 21 -13 0
-48 -10 74 0
90 4 0
104 -89 88 -2 -92 0
69 81 0
108 29 -1 56 98 94 0
34 -108 -103 -114 38 95 0
-21 77 -36 4 0
43 106 19 0
-28 -14 0
58 -42 36 0
62 -51 -24 -59 -29 0
-73 -11 50 -17 0
64 -88 96 69 0
-64 96 -58 -15 0
-23 -88 0
-38 105 -7 26 -70 91 0
80 83 -36 43 0
50 -98 0
99 -56 43 75 -8 0
26 -40 -11 0
-81 115 0
-113 -84 0
4 -108 0
94 113 67 68 63 15 0
64 100 -32 -107 6 0
86 -117 94 0
-48 73 91 36 89 3 0
-84 -99 53 117 -25 0
-96 60 39 -13 -66 0
3 -97 0
-46 57 -83 0
58 -55 0
-12 -5 -90 -71 -34 0
-106 111 -11 112 -41 117 0
117 0
